10 1 5
986 265 139 686 19 225 637 174 301 551 
36 680 44 568 956 537 852 808 547 659 
284 200 108 198 213 187 503 655 967 232 
871 953 497 9 638 515 234 275 689 534 
825 724 213 869 292 168 405 144 975 951 
8020 2580 1510 9090 4560 3630 960 9590 170 630 
20370
